1631448780
1631456100
1631515380
1631534400
1631602800
1631620800
1631689200
1631707200
1631775600
1631793600
1631862000
1631872200
1631875800
1631883600
1632207600
1632225600
1632121200
1632139200
1632294000
1632312000
1632380400
1632398400
1632466800
1632477000
1632480600
1632488400
1632812400
1632830400
1632898800
1632916800
1632985200
1633003200
